experiments/sat_smt/run/sat-r/results/sarah.res
solved=true
solvingTime=4.04015350341796875
nActions=8