experiments/sat_smt/run/sat-r/results/sarah.out
Timesteps: 1
s UNSATISFIABLE
real 0.12
user 0.01
sys 0.00
Timesteps: 2
s UNSATISFIABLE
real 0.14
user 0.03
sys 0.00
Timesteps: 3
s UNSATISFIABLE
real 0.19
user 0.08
sys 0.00
Timesteps: 4
s UNSATISFIABLE
real 0.24
user 0.16
sys 0.00
Timesteps: 5
s UNSATISFIABLE
real 0.42
user 0.33
sys 0.01
Timesteps: 6
s UNSATISFIABLE
real 0.61
user 0.51
sys 0.00
Timesteps: 7
s UNSATISFIABLE
real 1.50
user 1.38
sys 0.01
Timesteps: 8
s SATISFIABLE
real 0.59
user 0.44
sys 0.01
